4 
5  12 25 46 
6  02 09 17 24 32 42 50 57 
7  04 12 19 27 34 42 49 57 
8  04 12 19 27 34 42 49 57 
9  04 12 19 27 34 42 49 
10  04 19 34 49 
11  04 19 34 49 
12  04 19 34 49 
13  04 19 34 42 49 57 
14  04 12 19 27 34 42 49 57 
15  04 12 19 27 34 42 49 57 
16  04 12 19 27 34 42 49 57 
17  04 12 19 27 34 42 49 57 
18  04 12 19 27 34 42 49 57 
19  04 12 19 27 34 42 49 57 
20  04 12 19 27 42 57 
21  12 27 42 57 
22  12 27 42 57 
23  13 
0 
